certificates/rado_a14_c40_N27.cnf
c Rad2 upper bound instance: x1 + 14*x2 - x3 = 40, interval [1,27]
p cnf 27 104
1 3 0
-1 -3 0
1 4 17 0
-1 -4 -17 0
2 3 4 0
-2 -3 -4 0
2 4 18 0
-2 -4 -18 0
3 5 0
-3 -5 0
3 4 19 0
-3 -4 -19 0
3 4 6 0
-3 -4 -6 0
4 20 0
-4 -20 0
3 5 7 0
-3 -5 -7 0
4 5 21 0
-4 -5 -21 0
3 6 8 0
-3 -6 -8 0
4 6 22 0
-4 -6 -22 0
3 7 9 0
-3 -7 -9 0
4 7 23 0
-4 -7 -23 0
3 8 10 0
-3 -8 -10 0
4 8 24 0
-4 -8 -24 0
3 9 11 0
-3 -9 -11 0
4 9 25 0
-4 -9 -25 0
3 10 12 0
-3 -10 -12 0
4 10 26 0
-4 -10 -26 0
3 11 13 0
-3 -11 -13 0
4 11 27 0
-4 -11 -27 0
3 12 14 0
-3 -12 -14 0
1 2 13 0
-1 -2 -13 0
3 13 15 0
-3 -13 -15 0
2 14 0
-2 -14 0
3 14 16 0
-3 -14 -16 0
2 3 15 0
-2 -3 -15 0
3 15 17 0
-3 -15 -17 0
2 4 16 0
-2 -4 -16 0
3 16 18 0
-3 -16 -18 0
2 5 17 0
-2 -5 -17 0
3 17 19 0
-3 -17 -19 0
2 6 18 0
-2 -6 -18 0
3 18 20 0
-3 -18 -20 0
2 7 19 0
-2 -7 -19 0
3 19 21 0
-3 -19 -21 0
2 8 20 0
-2 -8 -20 0
3 20 22 0
-3 -20 -22 0
2 9 21 0
-2 -9 -21 0
3 21 23 0
-3 -21 -23 0
2 10 22 0
-2 -10 -22 0
3 22 24 0
-3 -22 -24 0
2 11 23 0
-2 -11 -23 0
3 23 25 0
-3 -23 -25 0
2 12 24 0
-2 -12 -24 0
3 24 26 0
-3 -24 -26 0
2 13 25 0
-2 -13 -25 0
3 25 27 0
-3 -25 -27 0
2 14 26 0
-2 -14 -26 0
1 27 0
-1 -27 0
2 15 27 0
-2 -15 -27 0
