certificates/rado_a14_c40_N27.drat
-23 -3 0
-4 -27 0
-3 -27 0
d -3 -25 -27 0
-27 0
1 0
-3 0
5 0
25 0
23 0
4 0
-17 0
-20 0
-21 0
-9 0
-7 0
19 0
15 0
22 0
18 0
11 0
2 0
0
